Traveling Salesman Problem/TSP_generados/Aleatorio1620390872_6.tsp
NAME: Aleatorio1620390872_6.tsp
COMMENT: Randomly generated scenario
TYPE: TSP
DIMENSION: 6
EDGE_WEIGHT_TYPE: ATT
NODE_COORD_SECTION
1 8.01 5.72
2 37.27 23.2
3 32.14 28.24
4 8.13 3.69
5 16.45 6.64
6 41.36 46.58
