Traveling Salesman Problem/TSP_generados/Aleatorio1620390872_6.opt.tour
NAME: Aleatorio1620390872_6.opt.tour
COMMENT: Optimal solution for Aleatorio1620390872_6 (114.73216737610294)
TYPE: TOUR
DIMENSION: 6
TOUR_SECTION
1 3 6 2 5 4
-1
EOF
